50
68.75
0 49 1.2 0.25
1 48 1.21 0.25
2 47 1.21 0.25
3 46 1.2 0.25
4 45 1.2 0.25
5 44 1.2 0.25
6 43 1.19 0.25
7 42 1.19 0.25
8 41 1.17 0.25
9 40 1.18 0.25
10 39 1.26 0.25
11 38 1.13 0.25
12 37 1.24 0.25
13 36 1.22 0.25
14 35 1.17 0.25
15 34 1.18 0.25
16 33 1.24 0.25
17 32 1.16 0.25
18 31 1.23 0.25
19 30 1.2 0.25
20 29 1.24 0.25
21 28 1.18 0.25
22 27 1.22 0.25
23 26 1.19 0.25
24 25 1.2 0.25
25 24 1.17 0.25
26 23 1.13 0.25
27 22 1.18 0.25
28 21 1.19 0.25
29 20 1.15 0.25
30 19 1.21 0.25
31 18 1.17 0.25
32 17 1.24 0.25
33 16 1.12 0.25
34 15 1.2 0.25
35 14 1.14 0.25
36 13 1.23 0.25
37 12 1.17 0.25
38 11 1.18 0.25
39 10 1.2 0.25
40 9 1.11 0.25
41 8 1.12 0.25
42 7 1.14 0.25
43 6 1.17 0.25
44 5 1.2 0.25
45 4 1.0 0.25
46 3 1.0 0.25
47 2 1.0 0.25
48 1 1.0 0.25
